
Log started (V22.2.0.0) Tue Jun  9 08:33:14 2026

New value for time limit in seconds: 120
New value for default parallel thread count: 4
New value for mixed integer optimality gap tolerance: 0.001
New value for level of mixed integer node display: 2

Problem 'results/InstanceB10_bigm_finsteps123.lp' read.
Read time = 0.00 sec. (0.04 ticks)
Version identifier: 22.2.0.0 | 2026-05-04 | 5dff98e58
CPXPARAM_Threads                                 4
CPXPARAM_TimeLimit                               120
CPXPARAM_MIP_Tolerances_MIPGap                   0.001
Tried aggregator 2 times.
MIP Presolve eliminated 17 rows and 17 columns.
MIP Presolve modified 2171 coefficients.
Aggregator did 91 substitutions.
Reduced MIP has 358 rows, 236 columns, and 976 nonzeros.
Reduced MIP has 145 binaries, 0 generals, 0 SOSs, and 0 indicators.
Presolve time = 0.00 sec. (1.48 ticks)
Found incumbent of value 24.000000 after 0.00 sec. (2.11 ticks)
Probing time = 0.00 sec. (0.72 ticks)
Tried aggregator 1 time.
Detecting symmetries...
MIP Presolve modified 36 coefficients.
Reduced MIP has 358 rows, 236 columns, and 976 nonzeros.
Reduced MIP has 145 binaries, 0 generals, 0 SOSs, and 0 indicators.
Presolve time = 0.00 sec. (0.56 ticks)
Probing time = 0.00 sec. (0.68 ticks)
Clique table members: 211.
MIP emphasis: balance optimality and feasibility.
MIP search method: dynamic search.
Parallel mode: deterministic, using up to 4 threads.
Root relaxation solution time = 0.00 sec. (1.10 ticks)

        Nodes                                         Cuts/
   Node  Left     Objective  IInf  Best Integer    Best Bound    ItCnt     Gap

*     0+    0                           24.0000        9.0000            62.50%
*     0+    0                           21.0000        9.0000            57.14%
      0     0        9.0000     6       21.0000        9.0000       96   57.14%
*     0+    0                           11.0000        9.0000            18.18%
      0     0       10.0000     6       11.0000      Cuts: 60      153    9.09%
*     0+    0                           10.0000       10.0000             0.00%
      0     0        cutoff             10.0000       10.0000      153    0.00%
Elapsed time = 0.01 sec. (8.62 ticks, tree = 0.01 MB, solutions = 4)

Clique cuts applied:  4
Implied bound cuts applied:  24
Mixed integer rounding cuts applied:  1

Root node processing (before b&c):
  Real time             =    0.01 sec. (8.65 ticks)
Parallel b&c, 4 threads:
  Real time             =    0.00 sec. (0.00 ticks)
  Sync time (average)   =    0.00 sec.
  Wait time (average)   =    0.00 sec.
                          ------------
Total (root+branch&cut) =    0.01 sec. (8.65 ticks)

Solution pool: 4 solutions saved.

MIP - Integer optimal solution:  Objective =  1.0000000000e+01
Solution time =    0.01 sec.  Iterations = 153  Nodes = 0
Deterministic time = 8.65 ticks  (814.52 ticks/sec)


Incumbent solution written to file 'results/InstanceB10_bigm_finsteps123.sol'.
